p cnf 399 672
41 42 1 64 65 0
41 42 1 64 -65 0
41 42 1 -64 65 0
41 42 1 -64 -65 0
-41 -42 1 66 67 0
-41 -42 1 66 -67 0
-41 -42 1 -66 67 0
-41 -42 1 -66 -67 0
41 -42 -1 68 69 0
41 -42 -1 68 -69 0
41 -42 -1 -68 69 0
41 -42 -1 -68 -69 0
-41 42 -1 70 71 0
-41 42 -1 70 -71 0
-41 42 -1 -70 71 0
-41 42 -1 -70 -71 0
1 43 2 72 73 0
1 43 2 72 -73 0
1 43 2 -72 73 0
1 43 2 -72 -73 0
-1 -43 2 74 75 0
-1 -43 2 74 -75 0
-1 -43 2 -74 75 0
-1 -43 2 -74 -75 0
1 -43 -2 76 77 0
1 -43 -2 76 -77 0
1 -43 -2 -76 77 0
1 -43 -2 -76 -77 0
-1 43 -2 78 79 0
-1 43 -2 78 -79 0
-1 43 -2 -78 79 0
-1 43 -2 -78 -79 0
2 44 3 80 81 0
2 44 3 80 -81 0
2 44 3 -80 81 0
2 44 3 -80 -81 0
-2 -44 3 82 83 0
-2 -44 3 82 -83 0
-2 -44 3 -82 83 0
-2 -44 3 -82 -83 0
2 -44 -3 84 85 0
2 -44 -3 84 -85 0
2 -44 -3 -84 85 0
2 -44 -3 -84 -85 0
-2 44 -3 86 87 0
-2 44 -3 86 -87 0
-2 44 -3 -86 87 0
-2 44 -3 -86 -87 0
3 45 4 88 89 0
3 45 4 88 -89 0
3 45 4 -88 89 0
3 45 4 -88 -89 0
-3 -45 4 90 91 0
-3 -45 4 90 -91 0
-3 -45 4 -90 91 0
-3 -45 4 -90 -91 0
3 -45 -4 92 93 0
3 -45 -4 92 -93 0
3 -45 -4 -92 93 0
3 -45 -4 -92 -93 0
-3 45 -4 94 95 0
-3 45 -4 94 -95 0
-3 45 -4 -94 95 0
-3 45 -4 -94 -95 0
4 46 5 96 97 0
4 46 5 96 -97 0
4 46 5 -96 97 0
4 46 5 -96 -97 0
-4 -46 5 98 99 0
-4 -46 5 98 -99 0
-4 -46 5 -98 99 0
-4 -46 5 -98 -99 0
4 -46 -5 100 101 0
4 -46 -5 100 -101 0
4 -46 -5 -100 101 0
4 -46 -5 -100 -101 0
-4 46 -5 102 103 0
-4 46 -5 102 -103 0
-4 46 -5 -102 103 0
-4 46 -5 -102 -103 0
5 47 6 104 105 0
5 47 6 104 -105 0
5 47 6 -104 105 0
5 47 6 -104 -105 0
-5 -47 6 106 107 0
-5 -47 6 106 -107 0
-5 -47 6 -106 107 0
-5 -47 6 -106 -107 0
5 -47 -6 108 109 0
5 -47 -6 108 -109 0
5 -47 -6 -108 109 0
5 -47 -6 -108 -109 0
-5 47 -6 110 111 0
-5 47 -6 110 -111 0
-5 47 -6 -110 111 0
-5 47 -6 -110 -111 0
6 48 7 112 113 0
6 48 7 112 -113 0
6 48 7 -112 113 0
6 48 7 -112 -113 0
-6 -48 7 114 115 0
-6 -48 7 114 -115 0
-6 -48 7 -114 115 0
-6 -48 7 -114 -115 0
6 -48 -7 116 117 0
6 -48 -7 116 -117 0
6 -48 -7 -116 117 0
6 -48 -7 -116 -117 0
-6 48 -7 118 119 0
-6 48 -7 118 -119 0
-6 48 -7 -118 119 0
-6 48 -7 -118 -119 0
7 49 8 120 121 0
7 49 8 120 -121 0
7 49 8 -120 121 0
7 49 8 -120 -121 0
-7 -49 8 122 123 0
-7 -49 8 122 -123 0
-7 -49 8 -122 123 0
-7 -49 8 -122 -123 0
7 -49 -8 124 125 0
7 -49 -8 124 -125 0
7 -49 -8 -124 125 0
7 -49 -8 -124 -125 0
-7 49 -8 126 127 0
-7 49 -8 126 -127 0
-7 49 -8 -126 127 0
-7 49 -8 -126 -127 0
8 50 9 128 129 0
8 50 9 128 -129 0
8 50 9 -128 129 0
8 50 9 -128 -129 0
-8 -50 9 130 131 0
-8 -50 9 130 -131 0
-8 -50 9 -130 131 0
-8 -50 9 -130 -131 0
8 -50 -9 132 133 0
8 -50 -9 132 -133 0
8 -50 -9 -132 133 0
8 -50 -9 -132 -133 0
-8 50 -9 134 135 0
-8 50 -9 134 -135 0
-8 50 -9 -134 135 0
-8 50 -9 -134 -135 0
9 51 10 136 137 0
9 51 10 136 -137 0
9 51 10 -136 137 0
9 51 10 -136 -137 0
-9 -51 10 138 139 0
-9 -51 10 138 -139 0
-9 -51 10 -138 139 0
-9 -51 10 -138 -139 0
9 -51 -10 140 141 0
9 -51 -10 140 -141 0
9 -51 -10 -140 141 0
9 -51 -10 -140 -141 0
-9 51 -10 142 143 0
-9 51 -10 142 -143 0
-9 51 -10 -142 143 0
-9 51 -10 -142 -143 0
10 52 11 144 145 0
10 52 11 144 -145 0
10 52 11 -144 145 0
10 52 11 -144 -145 0
-10 -52 11 146 147 0
-10 -52 11 146 -147 0
-10 -52 11 -146 147 0
-10 -52 11 -146 -147 0
10 -52 -11 148 149 0
10 -52 -11 148 -149 0
10 -52 -11 -148 149 0
10 -52 -11 -148 -149 0
-10 52 -11 150 151 0
-10 52 -11 150 -151 0
-10 52 -11 -150 151 0
-10 52 -11 -150 -151 0
11 53 12 152 153 0
11 53 12 152 -153 0
11 53 12 -152 153 0
11 53 12 -152 -153 0
-11 -53 12 154 155 0
-11 -53 12 154 -155 0
-11 -53 12 -154 155 0
-11 -53 12 -154 -155 0
11 -53 -12 156 157 0
11 -53 -12 156 -157 0
11 -53 -12 -156 157 0
11 -53 -12 -156 -157 0
-11 53 -12 158 159 0
-11 53 -12 158 -159 0
-11 53 -12 -158 159 0
-11 53 -12 -158 -159 0
12 54 13 160 161 0
12 54 13 160 -161 0
12 54 13 -160 161 0
12 54 13 -160 -161 0
-12 -54 13 162 163 0
-12 -54 13 162 -163 0
-12 -54 13 -162 163 0
-12 -54 13 -162 -163 0
12 -54 -13 164 165 0
12 -54 -13 164 -165 0
12 -54 -13 -164 165 0
12 -54 -13 -164 -165 0
-12 54 -13 166 167 0
-12 54 -13 166 -167 0
-12 54 -13 -166 167 0
-12 54 -13 -166 -167 0
13 55 14 168 169 0
13 55 14 168 -169 0
13 55 14 -168 169 0
13 55 14 -168 -169 0
-13 -55 14 170 171 0
-13 -55 14 170 -171 0
-13 -55 14 -170 171 0
-13 -55 14 -170 -171 0
13 -55 -14 172 173 0
13 -55 -14 172 -173 0
13 -55 -14 -172 173 0
13 -55 -14 -172 -173 0
-13 55 -14 174 175 0
-13 55 -14 174 -175 0
-13 55 -14 -174 175 0
-13 55 -14 -174 -175 0
14 56 15 176 177 0
14 56 15 176 -177 0
14 56 15 -176 177 0
14 56 15 -176 -177 0
-14 -56 15 178 179 0
-14 -56 15 178 -179 0
-14 -56 15 -178 179 0
-14 -56 15 -178 -179 0
14 -56 -15 180 181 0
14 -56 -15 180 -181 0
14 -56 -15 -180 181 0
14 -56 -15 -180 -181 0
-14 56 -15 182 183 0
-14 56 -15 182 -183 0
-14 56 -15 -182 183 0
-14 56 -15 -182 -183 0
15 57 16 184 185 0
15 57 16 184 -185 0
15 57 16 -184 185 0
15 57 16 -184 -185 0
-15 -57 16 186 187 0
-15 -57 16 186 -187 0
-15 -57 16 -186 187 0
-15 -57 16 -186 -187 0
15 -57 -16 188 189 0
15 -57 -16 188 -189 0
15 -57 -16 -188 189 0
15 -57 -16 -188 -189 0
-15 57 -16 190 191 0
-15 57 -16 190 -191 0
-15 57 -16 -190 191 0
-15 57 -16 -190 -191 0
16 58 17 192 193 0
16 58 17 192 -193 0
16 58 17 -192 193 0
16 58 17 -192 -193 0
-16 -58 17 194 195 0
-16 -58 17 194 -195 0
-16 -58 17 -194 195 0
-16 -58 17 -194 -195 0
16 -58 -17 196 197 0
16 -58 -17 196 -197 0
16 -58 -17 -196 197 0
16 -58 -17 -196 -197 0
-16 58 -17 198 199 0
-16 58 -17 198 -199 0
-16 58 -17 -198 199 0
-16 58 -17 -198 -199 0
17 59 18 200 201 0
17 59 18 200 -201 0
17 59 18 -200 201 0
17 59 18 -200 -201 0
-17 -59 18 202 203 0
-17 -59 18 202 -203 0
-17 -59 18 -202 203 0
-17 -59 18 -202 -203 0
17 -59 -18 204 205 0
17 -59 -18 204 -205 0
17 -59 -18 -204 205 0
17 -59 -18 -204 -205 0
-17 59 -18 206 207 0
-17 59 -18 206 -207 0
-17 59 -18 -206 207 0
-17 59 -18 -206 -207 0
18 60 19 208 209 0
18 60 19 208 -209 0
18 60 19 -208 209 0
18 60 19 -208 -209 0
-18 -60 19 210 211 0
-18 -60 19 210 -211 0
-18 -60 19 -210 211 0
-18 -60 19 -210 -211 0
18 -60 -19 212 213 0
18 -60 -19 212 -213 0
18 -60 -19 -212 213 0
18 -60 -19 -212 -213 0
-18 60 -19 214 215 0
-18 60 -19 214 -215 0
-18 60 -19 -214 215 0
-18 60 -19 -214 -215 0
19 61 20 216 217 0
19 61 20 216 -217 0
19 61 20 -216 217 0
19 61 20 -216 -217 0
-19 -61 20 218 219 0
-19 -61 20 218 -219 0
-19 -61 20 -218 219 0
-19 -61 20 -218 -219 0
19 -61 -20 220 221 0
19 -61 -20 220 -221 0
19 -61 -20 -220 221 0
19 -61 -20 -220 -221 0
-19 61 -20 222 223 0
-19 61 -20 222 -223 0
-19 61 -20 -222 223 0
-19 61 -20 -222 -223 0
20 62 63 224 225 0
20 62 63 224 -225 0
20 62 63 -224 225 0
20 62 63 -224 -225 0
-20 -62 63 226 227 0
-20 -62 63 226 -227 0
-20 -62 63 -226 227 0
-20 -62 63 -226 -227 0
20 -62 -63 228 229 0
20 -62 -63 228 -229 0
20 -62 -63 -228 229 0
20 -62 -63 -228 -229 0
-20 62 -63 230 231 0
-20 62 -63 230 -231 0
-20 62 -63 -230 231 0
-20 62 -63 -230 -231 0
21 62 63 232 233 0
21 62 63 232 -233 0
21 62 63 -232 233 0
21 62 63 -232 -233 0
-21 -62 63 234 235 0
-21 -62 63 234 -235 0
-21 -62 63 -234 235 0
-21 -62 63 -234 -235 0
21 -62 -63 236 237 0
21 -62 -63 236 -237 0
21 -62 -63 -236 237 0
21 -62 -63 -236 -237 0
-21 62 -63 238 239 0
-21 62 -63 238 -239 0
-21 62 -63 -238 239 0
-21 62 -63 -238 -239 0
22 61 21 240 241 0
22 61 21 240 -241 0
22 61 21 -240 241 0
22 61 21 -240 -241 0
-22 -61 21 242 243 0
-22 -61 21 242 -243 0
-22 -61 21 -242 243 0
-22 -61 21 -242 -243 0
22 -61 -21 244 245 0
22 -61 -21 244 -245 0
22 -61 -21 -244 245 0
22 -61 -21 -244 -245 0
-22 61 -21 246 247 0
-22 61 -21 246 -247 0
-22 61 -21 -246 247 0
-22 61 -21 -246 -247 0
23 60 22 248 249 0
23 60 22 248 -249 0
23 60 22 -248 249 0
23 60 22 -248 -249 0
-23 -60 22 250 251 0
-23 -60 22 250 -251 0
-23 -60 22 -250 251 0
-23 -60 22 -250 -251 0
23 -60 -22 252 253 0
23 -60 -22 252 -253 0
23 -60 -22 -252 253 0
23 -60 -22 -252 -253 0
-23 60 -22 254 255 0
-23 60 -22 254 -255 0
-23 60 -22 -254 255 0
-23 60 -22 -254 -255 0
24 59 23 256 257 0
24 59 23 256 -257 0
24 59 23 -256 257 0
24 59 23 -256 -257 0
-24 -59 23 258 259 0
-24 -59 23 258 -259 0
-24 -59 23 -258 259 0
-24 -59 23 -258 -259 0
24 -59 -23 260 261 0
24 -59 -23 260 -261 0
24 -59 -23 -260 261 0
24 -59 -23 -260 -261 0
-24 59 -23 262 263 0
-24 59 -23 262 -263 0
-24 59 -23 -262 263 0
-24 59 -23 -262 -263 0
25 58 24 264 265 0
25 58 24 264 -265 0
25 58 24 -264 265 0
25 58 24 -264 -265 0
-25 -58 24 266 267 0
-25 -58 24 266 -267 0
-25 -58 24 -266 267 0
-25 -58 24 -266 -267 0
25 -58 -24 268 269 0
25 -58 -24 268 -269 0
25 -58 -24 -268 269 0
25 -58 -24 -268 -269 0
-25 58 -24 270 271 0
-25 58 -24 270 -271 0
-25 58 -24 -270 271 0
-25 58 -24 -270 -271 0
26 57 25 272 273 0
26 57 25 272 -273 0
26 57 25 -272 273 0
26 57 25 -272 -273 0
-26 -57 25 274 275 0
-26 -57 25 274 -275 0
-26 -57 25 -274 275 0
-26 -57 25 -274 -275 0
26 -57 -25 276 277 0
26 -57 -25 276 -277 0
26 -57 -25 -276 277 0
26 -57 -25 -276 -277 0
-26 57 -25 278 279 0
-26 57 -25 278 -279 0
-26 57 -25 -278 279 0
-26 57 -25 -278 -279 0
27 56 26 280 281 0
27 56 26 280 -281 0
27 56 26 -280 281 0
27 56 26 -280 -281 0
-27 -56 26 282 283 0
-27 -56 26 282 -283 0
-27 -56 26 -282 283 0
-27 -56 26 -282 -283 0
27 -56 -26 284 285 0
27 -56 -26 284 -285 0
27 -56 -26 -284 285 0
27 -56 -26 -284 -285 0
-27 56 -26 286 287 0
-27 56 -26 286 -287 0
-27 56 -26 -286 287 0
-27 56 -26 -286 -287 0
28 55 27 288 289 0
28 55 27 288 -289 0
28 55 27 -288 289 0
28 55 27 -288 -289 0
-28 -55 27 290 291 0
-28 -55 27 290 -291 0
-28 -55 27 -290 291 0
-28 -55 27 -290 -291 0
28 -55 -27 292 293 0
28 -55 -27 292 -293 0
28 -55 -27 -292 293 0
28 -55 -27 -292 -293 0
-28 55 -27 294 295 0
-28 55 -27 294 -295 0
-28 55 -27 -294 295 0
-28 55 -27 -294 -295 0
29 54 28 296 297 0
29 54 28 296 -297 0
29 54 28 -296 297 0
29 54 28 -296 -297 0
-29 -54 28 298 299 0
-29 -54 28 298 -299 0
-29 -54 28 -298 299 0
-29 -54 28 -298 -299 0
29 -54 -28 300 301 0
29 -54 -28 300 -301 0
29 -54 -28 -300 301 0
29 -54 -28 -300 -301 0
-29 54 -28 302 303 0
-29 54 -28 302 -303 0
-29 54 -28 -302 303 0
-29 54 -28 -302 -303 0
30 53 29 304 305 0
30 53 29 304 -305 0
30 53 29 -304 305 0
30 53 29 -304 -305 0
-30 -53 29 306 307 0
-30 -53 29 306 -307 0
-30 -53 29 -306 307 0
-30 -53 29 -306 -307 0
30 -53 -29 308 309 0
30 -53 -29 308 -309 0
30 -53 -29 -308 309 0
30 -53 -29 -308 -309 0
-30 53 -29 310 311 0
-30 53 -29 310 -311 0
-30 53 -29 -310 311 0
-30 53 -29 -310 -311 0
31 52 30 312 313 0
31 52 30 312 -313 0
31 52 30 -312 313 0
31 52 30 -312 -313 0
-31 -52 30 314 315 0
-31 -52 30 314 -315 0
-31 -52 30 -314 315 0
-31 -52 30 -314 -315 0
31 -52 -30 316 317 0
31 -52 -30 316 -317 0
31 -52 -30 -316 317 0
31 -52 -30 -316 -317 0
-31 52 -30 318 319 0
-31 52 -30 318 -319 0
-31 52 -30 -318 319 0
-31 52 -30 -318 -319 0
32 51 31 320 321 0
32 51 31 320 -321 0
32 51 31 -320 321 0
32 51 31 -320 -321 0
-32 -51 31 322 323 0
-32 -51 31 322 -323 0
-32 -51 31 -322 323 0
-32 -51 31 -322 -323 0
32 -51 -31 324 325 0
32 -51 -31 324 -325 0
32 -51 -31 -324 325 0
32 -51 -31 -324 -325 0
-32 51 -31 326 327 0
-32 51 -31 326 -327 0
-32 51 -31 -326 327 0
-32 51 -31 -326 -327 0
33 50 32 328 329 0
33 50 32 328 -329 0
33 50 32 -328 329 0
33 50 32 -328 -329 0
-33 -50 32 330 331 0
-33 -50 32 330 -331 0
-33 -50 32 -330 331 0
-33 -50 32 -330 -331 0
33 -50 -32 332 333 0
33 -50 -32 332 -333 0
33 -50 -32 -332 333 0
33 -50 -32 -332 -333 0
-33 50 -32 334 335 0
-33 50 -32 334 -335 0
-33 50 -32 -334 335 0
-33 50 -32 -334 -335 0
34 49 33 336 337 0
34 49 33 336 -337 0
34 49 33 -336 337 0
34 49 33 -336 -337 0
-34 -49 33 338 339 0
-34 -49 33 338 -339 0
-34 -49 33 -338 339 0
-34 -49 33 -338 -339 0
34 -49 -33 340 341 0
34 -49 -33 340 -341 0
34 -49 -33 -340 341 0
34 -49 -33 -340 -341 0
-34 49 -33 342 343 0
-34 49 -33 342 -343 0
-34 49 -33 -342 343 0
-34 49 -33 -342 -343 0
35 48 34 344 345 0
35 48 34 344 -345 0
35 48 34 -344 345 0
35 48 34 -344 -345 0
-35 -48 34 346 347 0
-35 -48 34 346 -347 0
-35 -48 34 -346 347 0
-35 -48 34 -346 -347 0
35 -48 -34 348 349 0
35 -48 -34 348 -349 0
35 -48 -34 -348 349 0
35 -48 -34 -348 -349 0
-35 48 -34 350 351 0
-35 48 -34 350 -351 0
-35 48 -34 -350 351 0
-35 48 -34 -350 -351 0
36 47 35 352 353 0
36 47 35 352 -353 0
36 47 35 -352 353 0
36 47 35 -352 -353 0
-36 -47 35 354 355 0
-36 -47 35 354 -355 0
-36 -47 35 -354 355 0
-36 -47 35 -354 -355 0
36 -47 -35 356 357 0
36 -47 -35 356 -357 0
36 -47 -35 -356 357 0
36 -47 -35 -356 -357 0
-36 47 -35 358 359 0
-36 47 -35 358 -359 0
-36 47 -35 -358 359 0
-36 47 -35 -358 -359 0
37 46 36 360 361 0
37 46 36 360 -361 0
37 46 36 -360 361 0
37 46 36 -360 -361 0
-37 -46 36 362 363 0
-37 -46 36 362 -363 0
-37 -46 36 -362 363 0
-37 -46 36 -362 -363 0
37 -46 -36 364 365 0
37 -46 -36 364 -365 0
37 -46 -36 -364 365 0
37 -46 -36 -364 -365 0
-37 46 -36 366 367 0
-37 46 -36 366 -367 0
-37 46 -36 -366 367 0
-37 46 -36 -366 -367 0
38 45 37 368 369 0
38 45 37 368 -369 0
38 45 37 -368 369 0
38 45 37 -368 -369 0
-38 -45 37 370 371 0
-38 -45 37 370 -371 0
-38 -45 37 -370 371 0
-38 -45 37 -370 -371 0
38 -45 -37 372 373 0
38 -45 -37 372 -373 0
38 -45 -37 -372 373 0
38 -45 -37 -372 -373 0
-38 45 -37 374 375 0
-38 45 -37 374 -375 0
-38 45 -37 -374 375 0
-38 45 -37 -374 -375 0
39 44 38 376 377 0
39 44 38 376 -377 0
39 44 38 -376 377 0
39 44 38 -376 -377 0
-39 -44 38 378 379 0
-39 -44 38 378 -379 0
-39 -44 38 -378 379 0
-39 -44 38 -378 -379 0
39 -44 -38 380 381 0
39 -44 -38 380 -381 0
39 -44 -38 -380 381 0
39 -44 -38 -380 -381 0
-39 44 -38 382 383 0
-39 44 -38 382 -383 0
-39 44 -38 -382 383 0
-39 44 -38 -382 -383 0
40 43 39 384 385 0
40 43 39 384 -385 0
40 43 39 -384 385 0
40 43 39 -384 -385 0
-40 -43 39 386 387 0
-40 -43 39 386 -387 0
-40 -43 39 -386 387 0
-40 -43 39 -386 -387 0
40 -43 -39 388 389 0
40 -43 -39 388 -389 0
40 -43 -39 -388 389 0
40 -43 -39 -388 -389 0
-40 43 -39 390 391 0
-40 43 -39 390 -391 0
-40 43 -39 -390 391 0
-40 43 -39 -390 -391 0
41 42 -40 392 393 0
41 42 -40 392 -393 0
41 42 -40 -392 393 0
41 42 -40 -392 -393 0
-41 -42 -40 394 395 0
-41 -42 -40 394 -395 0
-41 -42 -40 -394 395 0
-41 -42 -40 -394 -395 0
41 -42 40 396 397 0
41 -42 40 396 -397 0
41 -42 40 -396 397 0
41 -42 40 -396 -397 0
-41 42 40 398 399 0
-41 42 40 398 -399 0
-41 42 40 -398 399 0
-41 42 40 -398 -399 0
